1315.53 0
0 73 74 77 64 63 79 67 70 69 68 66 82 20 83 85 84 86 87 21 0
0 132 112 126 124 123 122 110 111 125 81 71 0
0 17 113 120 114 115 119 130 65 19 0
0 91 25 27 28 30 31 61 49 34 32 134 76 78 133 80 33 0
0 129 128 127 121 109 108 107 106 116 131 117 18 118 46 0
0 72 47 75 1 48 62 54 55 56 103 104 93 94 45 44 43 40 3 41 42 2 4 5 6 7 8 9 10 12 11 14 88 15 13 16 89 90 92 29 26 24 22 0
0 23 59 58 57 105 97 96 38 39 95 37 98 100 99 36 35 101 102 53 50 51 52 60 0
